data/CVRPLIB/Vrp-Set-XML100/instances/XML100_1315_22.vrp
NAME : XML100_1315_22
COMMENT : Generated by Queiroga, Sadykov, Uchoa, and Vidal (2021)
TYPE : CVRP
DIMENSION : 101
EDGE_WEIGHT_TYPE : EUC_2D
CAPACITY : 18
NODE_COORD_SECTION
1    575  470 
2    370  822 
3    955  885 
4    984  123 
5    652  473 
6    861  748 
7    848  147 
8    378  206 
9    855  715 
10   329  773 
11   170  637 
12   942  834 
13   961  705 
14   905  899 
15   235  96  
16   776  701 
17   79   105 
18   115  853 
19   275  655 
20   177  567 
21   906  816 
22   802  865 
23   194  503 
24   927  738 
25   954  962 
26   254  332 
27   596  588 
28   946  725 
29   198  101 
30   380  612 
31   985  753 
32   751  859 
33   625  372 
34   536  953 
35   601  853 
36   455  488 
37   807  717 
38   873  154 
39   170  810 
40   88   720 
41   319  911 
42   743  830 
43   218  600 
44   711  239 
45   222  949 
46   890  131 
47   533  265 
48   988  788 
49   906  763 
50   150  552 
51   890  754 
52   266  8   
53   563  818 
54   269  983 
55   510  328 
56   997  110 
57   915  687 
58   281  507 
59   790  135 
60   507  822 
61   391  619 
62   917  137 
63   254  528 
64   871  46  
65   397  845 
66   745  725 
67   915  803 
68   428  21  
69   706  893 
70   822  226 
71   299  587 
72   842  976 
73   691  805 
74   497  101 
75   286  544 
76   38   614 
77   908  109 
78   966  85  
79   104  210 
80   979  960 
81   883  138 
82   349  634 
83   412  447 
84   231  634 
85   849  256 
86   264  603 
87   554  604 
88   885  921 
89   660  504 
90   682  848 
91   541  383 
92   922  9   
93   954  34  
94   40   958 
95   9    603 
96   162  355 
97   929  829 
98   332  567 
99   147  408 
100  845  603 
101  233  592 
DEMAND_SECTION
1    0   
2    1   
3    1   
4    1   
5    1   
6    1   
7    1   
8    1   
9    1   
10   1   
11   1   
12   1   
13   1   
14   1   
15   1   
16   1   
17   1   
18   1   
19   1   
20   1   
21   1   
22   1   
23   1   
24   1   
25   1   
26   1   
27   1   
28   1   
29   1   
30   1   
31   1   
32   1   
33   1   
34   1   
35   1   
36   1   
37   1   
38   1   
39   1   
40   1   
41   1   
42   1   
43   1   
44   1   
45   1   
46   1   
47   1   
48   1   
49   1   
50   1   
51   1   
52   1   
53   1   
54   1   
55   1   
56   1   
57   1   
58   1   
59   1   
60   1   
61   1   
62   1   
63   1   
64   1   
65   1   
66   1   
67   1   
68   1   
69   1   
70   1   
71   1   
72   1   
73   1   
74   1   
75   1   
76   1   
77   1   
78   1   
79   1   
80   1   
81   1   
82   1   
83   1   
84   1   
85   1   
86   1   
87   1   
88   1   
89   1   
90   1   
91   1   
92   1   
93   1   
94   1   
95   1   
96   1   
97   1   
98   1   
99   1   
100  1   
101  1   
DEPOT_SECTION
1
-1
EOF
