data/CVRPLIB/Vrp-Set-XML100/solutions/XML100_1315_22.sol
Route #1: 4 84 69 6 37 80 45 76 61 3 55 77 92 91 63 58 43 32
Route #2: 15 36 8 5 50 48 66 20 96 11 47 30 12 27 23 56 99 88
Route #3: 90 54 46 7 73 67 51 14 28 16 78 95 98 25 82
Route #4: 26 52 59 33 34 89 68 71 24 79 2 13 87 21 31 41 72 65
Route #5: 86 9 1 64 40 53 44 93 17 38 39 75 94 49 19 22 62 57
Route #6: 60 29 81 18 83 10 42 100 85 70 74 97 35
Cost 9452
